c Random generated cnf formula, satisfiable: true
p cnf 10 50
4 -10 6 0
-10 -6 -2 0
2 -8 -9 0
6 7 -1 0
-2 -5 3 0
-3 -5 7 0
1 -8 6 0
9 -2 -4 0
4 -8 -5 0
-9 3 2 0
-3 9 -8 0
5 9 10 0
1 -8 -9 0
3 4 -5 0
9 -10 -7 0
10 1 5 0
-6 -2 -8 0
-2 -4 9 0
-5 1 9 0
10 6 5 0
-5 4 -9 0
-7 5 -3 0
1 8 -3 0
9 -6 1 0
6 10 1 0
4 8 1 0
-10 -9 2 0
5 7 2 0
6 -8 2 0
-9 10 5 0
-4 -2 -9 0
-5 -10 -3 0
8 -3 -5 0
-4 -3 -2 0
-6 8 -9 0
9 -1 -10 0
-4 3 -9 0
-8 -5 -3 0
9 -8 -4 0
-5 -3 1 0
9 -8 -1 0
7 3 -6 0
2 -6 -8 0
-5 -10 -9 0
-9 -2 3 0
4 -7 -9 0
-5 -6 3 0
10 -2 -9 0
7 5 -8 0
-10 -8 6 0
